199 42 63 183 167 32 29 108 69 113 127 176 171 130 78 138 186 90 41 86 125 194 137 71 33 81 116 79 126 93 193 135 154 34 60 1 75 64 83 
142 133 152 103 104 151 182 35 22 161 21 50 112 192 114 55 110 95 44 80 145 91 178 96 73 2 174 82 158 157 66 97 8 39 141 120 146 30 67 148 36 175 
153 6 37 88 165 59 16 40 18 179 119 57 99 20 26 159 77 25 10 129 106 198 87 107 70 11 121 123 115 17 76 185 19 
140 49 24 124 15 68 169 98 31 195 92 9 155 177 168 53 56 45 72 3 136 184 111 51 27 52 101 74 144 13 
100 12 54 5 181 132 47 43 48 102 190 156 180 163 14 162 122 164 62 89 166 139 188 23 160 117 109 189 134 
4 28 200 7 196 131 147 170 149 46 197 172 173 94 65 191 58 150 187 
84 118 128 143 61 38 85 105 

